unsat
(:cnf-encoding-aux-vars   1
 :eliminated-applications 3
 :eliminated-vars         29
 :max-memory              18.20
 :memory                  17.99
 :nlsat-conflicts         12
 :nlsat-decisions         8
 :nlsat-learned-added     11
 :nlsat-propagations      39
 :nlsat-stages            7
 :num-allocs              8570
 :rlimit-count            10561
 :time                    0.00
 :total-time              0.01)
